number of jobs, number of machines, initial seed, upper bound and lower bound :
20           10   0000        0000        0000
processing times :
 96 29 85 28 97 33 45 4 81 72 25 22 17 36 61 64 47 42 46 97
 34 14 14 49 48 33 32 78 92 78 28 31 19 7 28 80 64 69 80 92
 49 11 83 72 59 12 12 8 42 64 49 13 61 15 87 48 9 8 84 71
 18 75 36 30 5 8 57 98 20 80 85 47 57 10 9 98 2 82 92 85
 59 14 92 73 85 32 14 27 25 15 17 92 7 1 26 69 85 74 95 63
 57 20 27 17 31 68 49 52 76 68 11 57 37 40 75 49 21 74 96 33
 82 7 40 56 58 75 65 54 34 17 37 55 78 46 14 82 79 17 39 36
 59 74 87 45 98 14 12 24 72 71 59 99 64 10 21 77 44 17 20 53
 57 15 54 56 87 73 50 24 88 51 66 48 49 52 34 59 74 40 72 4
 46 87 6 71 62 1 48 92 29 64 84 62 85 51 86 90 5 99 58 80
